c A SAT instance generated from a 3-CNF formula that had 38 clauses and 7 variables
p cnf 7 38
-7 -4 -6 0
3 6 -2 0
4 5 6 0
2 -7 -6 0
7 -3 -5 0
1 -5 -2 0
5 1 3 0
1 -2 6 0
2 5 -6 0
4 -2 -6 0
-4 2 3 0
3 -2 1 0
3 -6 -1 0
-4 -6 1 0
-2 7 -4 0
-6 -3 7 0
-7 6 -2 0
-6 5 -7 0
-4 -7 1 0
2 -7 4 0
-7 -3 -5 0
-6 -3 -2 0
-2 -6 5 0
7 1 -2 0
-6 -7 2 0
-6 -5 -2 0
1 -6 -5 0
-3 -7 5 0
-4 7 2 0
4 -2 7 0
3 -5 1 0
-1 -7 -6 0
-6 -2 5 0
-7 -4 2 0
-6 7 2 0
-3 -6 -4 0
4 -2 -5 0
-1 -5 -6 0
